%mem=1000MB
%NProcShared=4
#P M062X/def2SVP TDA=(NStates=10,50-50) pop=full gfinput Charge NoSymm


0 1
